50
6814

59 930
743 474
359 768
611 50
669 273
588 713
572 447
380 615
172 865
904 349
441 463
809 797
522 726
691 336
606 819
353 38
762 393
466 438
309 667
248 973
945 632
452 834
668 14
74 22
638 580
562 663
287 661
5 278
981 712
433 448
161 949
442 271
717 551
738 698
83 231
795 733
325 683
387 336
784 104
335 745
610 361
158 48
336 937
791 226
255 966
747 625
166 248
160 899
862 297
826 839
